1673884
24 42 14670
42 56 5894
56 29 11125
29 6 14521
6 25 11949
25 30 1249
30 41 5056
41 38 39159
38 7 28523
7 67 19183
67 64 14572
64 11 35955
11 66 13370
66 26 57991
26 55 61621
55 34 20835
34 46 36286
46 43 69394
43 22 102153
22 14 67712
14 52 39276
52 33 101509
33 57 88918
57 18 27906
18 10 28652
10 44 75759
44 31 78229
31 50 71829
50 28 10810
28 16 30472
16 59 10880
59 36 8563
36 53 53605
53 37 6554
37 62 30446
62 39 8740
39 51 11004
51 35 8926
35 68 19070
68 8 34471
8 15 6874
15 58 6904
58 9 1777
9 17 5356
17 27 1445
27 45 8214
45 65 16726
65 13 18316
13 54 13536
54 19 26950
19 49 8895
49 23 4353
23 60 7498
60 5 7979
5 40 3130
40 32 3996
32 12 4813
12 1 10465
1 47 14424
47 20 12843
20 4 4440
4 48 7248
48 2 7938
2 63 25131
63 21 32196
21 3 17216
3 61 12947
61 24 5437
